p tw 25 63
0 1
0 5
0 23
0 2
0 22
0 6
0 10
1 4
1 7
1 6
1 10
1 2
1 22
1 23
2 3
2 14
2 20
2 12
2 10
2 13
2 9
3 7
3 5
3 24
4 8
4 13
4 16
4 21
4 9
5 6
5 16
5 19
6 11
6 8
6 22
6 24
7 12
7 23
7 13
7 20
8 19
8 23
8 10
9 10
9 24
10 15
10 19
12 13
13 21
14 17
14 16
14 19
14 21
15 18
16 21
16 18
16 23
17 19
17 18
18 19
19 22
20 24
20 22
